
  20    0


   0  12 2 3 4 5 6 7 8 15 16 17 18 19 
   1   4 14 12 11 9 
   5   3 13 12 9 
   8   2 11 10 
   4   2 10 9 
   5   2 10 9 
   1   1 10 
   9   1 9 
   7   1 20
   2   1 20
   6   1 20
  10   1 20
   3   1 20
   9   1 20
   2   1 20
   9   1 20
   6   1 20
   1   1 20
   9   1 20
   0   0 
